NAME : swiss42-R-1-0-a.0329_2228.tour
COMMENT : Found by CTSP-d POMO Model Sun Mar 29 22:28:12 2026
TYPE : TOUR
DIMENSION : 42
TOUR_SECTION
2
1
8
38
16
17
15
20
14
6
27
19
12
13
26
11
42
24
9
10
41
22
25
40
23
39
35
34
21
37
36
32
18
33
31
30
29
28
3
4
5
7
-1
EOF
